(set-logic LIA)
(declare-var i Int)
(declare-var i! Int)
(declare-var n Int)
(declare-var n! Int)
(declare-var sn Int)
(declare-var sn! Int)
(declare-var i_0 Int)
(declare-var i_0! Int)
(declare-var i_1 Int)
(declare-var i_1! Int)
(declare-var i_2 Int)
(declare-var i_2! Int)
(declare-var i_3 Int)
(declare-var i_3! Int)
(declare-var n_0 Int)
(declare-var n_0! Int)
(declare-var sn_0 Int)
(declare-var sn_0! Int)
(declare-var sn_1 Int)
(declare-var sn_1! Int)
(declare-var sn_2 Int)
(declare-var sn_2! Int)
(declare-var sn_3 Int)
(declare-var sn_3! Int)
(synth-fun inv-f((parameter0 Int)(parameter1 Int)(parameter2 Int)(parameter3 Int)(parameter4 Int)(parameter5 Int)(parameter6 Int)(parameter7 Int)(parameter8 Int)(parameter9 Int)(parameter10 Int)(parameter11 Int))Bool) 
(constraint (=> (and (= i i_1) (= sn sn_1) (= sn_1 0) (= i_1 1) )(inv-f i n sn i_0 i_1 i_2 i_3 n_0 sn_0 sn_1 sn_2 sn_3 )))
(constraint (=> (and (inv-f i n sn i_0 i_1 i_2 i_3 n_0 sn_0 sn_1 sn_2 sn_3 ) (or (and (= i_2 i) (= sn_2 sn) (= i_2 i!) (= sn_2 sn!) (= n n_0) (= n! n_0) (= sn sn!) ) (and (= i_2 i) (= sn_2 sn) (<= i_2 n_0) (= i_3 (+ i_2 1 )) (= sn_3 (+ sn_2 1 )) (= i_3 i!) (= sn_3 sn!) (= n n_0) (= n! n_0) ) ) )(inv-f i! n! sn! i_0! i_1! i_2! i_3! n_0! sn_0! sn_1! sn_2! sn_3! )))
(constraint (=> (inv-f i n sn i_0 i_1 i_2 i_3 n_0 sn_0 sn_1 sn_2 sn_3 )(or (not (and (= i i_2) (= n n_0) (= sn sn_2) )) (not (and (not (<= i_2 n_0)) (not (= sn_2 0)) (not (= sn_2 n_0)) )) )))
(check-synth)

